jobs  (incl. supersource/sink ):	102
RESOURCES
- renewable                 : 2 R
- nonrenewable              : 2 N
- doubly constrained        : 0 D
************************************************************************
PRECEDENCE RELATIONS:
jobnr.    #modes  #successors   successors
1	1	12		2 4 5 6 7 9 10 11 12 14 17 19 
2	3	5		33 21 13 8 3 
3	3	8		32 31 26 24 23 22 20 18 
4	3	6		31 25 24 23 18 15 
5	3	9		38 33 31 29 28 27 26 25 21 
6	3	7		32 31 28 27 26 23 22 
7	3	5		33 28 27 20 16 
8	3	6		43 32 28 26 23 20 
9	3	5		33 27 26 23 21 
10	3	5		38 31 28 26 21 
11	3	4		31 28 24 20 
12	3	4		31 29 26 21 
13	3	8		52 38 36 34 31 28 27 25 
14	3	6		43 34 31 28 26 23 
15	3	9		52 43 38 36 35 34 32 28 26 
16	3	6		52 39 38 37 31 24 
17	3	6		52 31 30 29 27 25 
18	3	8		52 43 37 36 35 30 29 28 
19	3	4		43 39 30 23 
20	3	8		52 48 44 38 37 36 30 29 
21	3	4		52 48 39 24 
22	3	5		52 44 43 30 29 
23	3	7		52 48 42 38 37 36 35 
24	3	6		50 47 44 43 36 30 
25	3	7		48 43 42 41 40 39 35 
26	3	8		50 47 45 44 42 41 40 37 
27	3	8		53 50 47 46 44 40 39 37 
28	3	7		50 48 46 44 41 40 39 
29	3	5		50 47 40 39 34 
30	3	4		45 41 40 34 
31	3	4		48 42 41 35 
32	3	5		48 44 42 41 37 
33	3	4		53 50 47 37 
34	3	7		60 54 53 51 49 46 42 
35	3	8		60 58 55 54 51 50 49 46 
36	3	6		60 59 55 54 53 40 
37	3	7		60 59 58 55 54 51 49 
38	3	4		59 58 47 41 
39	3	3		56 51 45 
40	3	5		70 66 63 58 49 
41	3	4		69 55 54 53 
42	3	6		70 69 66 59 58 55 
43	3	7		70 61 60 59 57 56 55 
44	3	6		70 69 67 66 58 55 
45	3	7		71 66 64 63 60 59 58 
46	3	9		72 70 69 68 67 64 63 61 57 
47	3	9		72 70 69 68 67 64 63 61 57 
48	3	8		71 70 69 68 67 64 63 58 
49	3	6		72 69 68 61 57 56 
50	3	6		72 71 66 64 61 59 
51	3	6		72 70 68 67 64 57 
52	3	6		77 71 70 69 67 58 
53	3	8		77 72 71 68 67 66 62 61 
54	3	4		70 67 66 57 
55	3	6		74 71 68 65 64 63 
56	3	6		78 74 71 67 65 64 
57	3	4		77 71 65 62 
58	3	3		72 62 61 
59	3	5		81 77 68 67 62 
60	3	5		86 78 77 67 65 
61	3	4		80 78 74 65 
62	3	8		90 86 82 80 79 78 76 74 
63	3	8		90 86 83 82 81 78 77 75 
64	3	6		86 81 80 79 77 73 
65	3	5		83 81 79 75 73 
66	3	4		83 81 79 73 
67	3	7		90 88 83 82 80 79 76 
68	3	3		83 79 73 
69	3	8		90 88 85 83 82 81 80 76 
70	3	5		90 88 80 79 76 
71	3	6		90 88 83 82 81 76 
72	3	6		101 90 85 83 82 76 
73	3	4		90 88 82 76 
74	3	7		100 99 95 88 87 84 83 
75	3	2		88 76 
76	3	7		100 99 97 96 95 87 84 
77	3	6		101 99 97 95 85 84 
78	3	7		101 99 97 96 95 94 84 
79	3	6		101 99 95 92 89 85 
80	3	4		97 95 94 84 
81	3	6		97 96 95 93 92 91 
82	3	3		93 89 87 
83	3	5		97 94 93 92 91 
84	3	4		98 93 92 89 
85	3	4		96 94 93 91 
86	3	3		95 94 89 
87	3	3		94 92 91 
88	3	3		98 96 93 
89	3	1		91 
90	3	1		92 
91	3	1		102 
92	3	1		102 
93	3	1		102 
94	3	1		102 
95	3	1		102 
96	3	1		102 
97	3	1		102 
98	3	1		102 
99	3	1		102 
100	3	1		102 
101	3	1		102 
102	1	0		
************************************************************************
REQUESTS/DURATIONS
jobnr.	mode	dur	R1	R2	N1	N2	
------------------------------------------------------------------------
1	1	0	0	0	0	0	
2	1	4	2	3	9	7	
	2	8	2	2	7	4	
	3	10	2	2	7	2	
3	1	4	3	4	6	9	
	2	5	3	3	3	6	
	3	7	2	3	2	3	
4	1	2	5	3	6	9	
	2	8	4	3	5	9	
	3	9	4	3	4	9	
5	1	1	5	4	5	7	
	2	2	3	2	2	7	
	3	8	3	2	2	5	
6	1	2	4	4	6	6	
	2	8	3	2	5	4	
	3	9	3	2	5	2	
7	1	3	2	2	6	7	
	2	7	2	2	6	4	
	3	9	2	2	5	4	
8	1	2	2	5	8	9	
	2	6	1	4	7	4	
	3	8	1	4	6	4	
9	1	5	5	5	9	8	
	2	7	4	5	7	8	
	3	9	4	5	7	5	
10	1	3	3	3	2	6	
	2	7	1	3	2	5	
	3	8	1	1	2	4	
11	1	5	3	3	5	1	
	2	5	3	1	3	2	
	3	8	3	1	3	1	
12	1	2	5	5	8	9	
	2	6	4	3	8	5	
	3	8	4	3	6	4	
13	1	1	2	1	7	9	
	2	5	2	1	6	9	
	3	10	2	1	5	8	
14	1	1	1	2	5	7	
	2	8	1	1	5	5	
	3	10	1	1	3	5	
15	1	4	3	4	8	5	
	2	8	3	3	7	2	
	3	10	3	1	7	2	
16	1	3	5	1	5	3	
	2	6	4	1	4	3	
	3	9	3	1	2	2	
17	1	9	5	5	5	3	
	2	9	4	4	4	4	
	3	10	4	4	4	3	
18	1	2	3	5	5	8	
	2	4	2	5	4	7	
	3	6	2	5	4	5	
19	1	1	3	5	10	9	
	2	2	2	4	9	8	
	3	4	2	3	9	7	
20	1	2	4	4	9	7	
	2	6	3	4	5	7	
	3	8	1	4	2	7	
21	1	1	2	3	3	6	
	2	5	2	3	3	2	
	3	8	2	2	3	2	
22	1	4	3	5	5	9	
	2	8	1	4	3	8	
	3	9	1	4	3	6	
23	1	7	3	5	9	6	
	2	8	1	3	7	5	
	3	9	1	1	5	3	
24	1	1	3	4	5	6	
	2	2	3	4	4	5	
	3	4	3	4	2	4	
25	1	2	2	4	2	2	
	2	4	1	3	2	3	
	3	5	1	3	2	2	
26	1	5	2	4	9	4	
	2	6	2	3	9	4	
	3	9	1	1	9	3	
27	1	4	4	2	9	9	
	2	5	3	1	9	8	
	3	7	3	1	9	4	
28	1	1	3	4	5	9	
	2	6	3	4	4	9	
	3	7	3	4	4	8	
29	1	6	3	1	7	8	
	2	7	3	1	7	4	
	3	9	3	1	7	3	
30	1	1	4	5	6	10	
	2	5	4	3	4	7	
	3	9	4	2	2	4	
31	1	2	4	4	9	6	
	2	4	2	3	6	3	
	3	6	1	2	6	2	
32	1	1	3	2	8	3	
	2	3	3	2	5	2	
	3	5	3	2	5	1	
33	1	1	3	5	6	8	
	2	9	2	3	4	6	
	3	10	2	3	1	4	
34	1	2	3	3	9	7	
	2	6	3	3	9	6	
	3	8	3	2	9	4	
35	1	3	4	3	3	4	
	2	4	3	2	3	4	
	3	7	3	2	1	4	
36	1	4	2	4	9	3	
	2	5	2	2	7	3	
	3	6	2	2	6	1	
37	1	1	5	4	1	5	
	2	4	4	2	1	4	
	3	9	4	1	1	4	
38	1	3	3	5	3	9	
	2	5	3	5	3	7	
	3	8	3	5	1	5	
39	1	1	5	5	3	6	
	2	2	4	4	3	5	
	3	4	4	3	3	3	
40	1	2	4	3	4	6	
	2	4	3	2	2	5	
	3	10	3	1	2	2	
41	1	1	2	5	5	5	
	2	1	1	3	3	6	
	3	2	1	3	3	5	
42	1	1	4	5	7	9	
	2	4	3	5	6	7	
	3	10	3	5	6	6	
43	1	4	5	4	6	4	
	2	5	3	3	3	3	
	3	7	3	2	2	2	
44	1	2	3	3	5	8	
	2	4	3	2	4	7	
	3	7	3	2	2	7	
45	1	3	3	2	7	2	
	2	4	2	1	6	2	
	3	8	2	1	1	2	
46	1	5	2	2	7	6	
	2	7	2	1	6	6	
	3	8	2	1	4	5	
47	1	1	3	3	8	6	
	2	4	2	3	7	6	
	3	9	1	3	6	6	
48	1	3	5	4	4	7	
	2	5	4	4	3	7	
	3	10	3	4	2	7	
49	1	2	1	4	5	3	
	2	5	1	3	4	3	
	3	7	1	3	3	3	
50	1	3	3	4	8	8	
	2	5	2	4	5	6	
	3	7	2	4	1	4	
51	1	6	2	3	5	5	
	2	7	2	3	4	3	
	3	10	2	3	4	2	
52	1	2	3	3	9	4	
	2	3	3	3	9	3	
	3	9	2	3	9	1	
53	1	2	3	4	6	8	
	2	3	3	4	6	7	
	3	9	3	4	4	1	
54	1	5	4	5	7	4	
	2	7	4	4	6	3	
	3	9	4	4	5	2	
55	1	2	2	5	5	3	
	2	8	1	3	4	3	
	3	10	1	3	3	3	
56	1	3	3	2	7	7	
	2	4	2	1	5	5	
	3	7	2	1	2	4	
57	1	4	5	3	4	9	
	2	6	5	3	2	7	
	3	8	5	2	2	3	
58	1	1	2	3	8	10	
	2	8	2	2	7	8	
	3	10	2	2	6	5	
59	1	1	4	2	9	2	
	2	3	3	1	8	2	
	3	10	3	1	8	1	
60	1	5	1	2	3	9	
	2	8	1	1	3	8	
	3	9	1	1	3	7	
61	1	3	3	3	6	8	
	2	6	3	2	5	7	
	3	7	3	2	4	6	
62	1	3	3	3	8	7	
	2	7	1	3	7	7	
	3	8	1	2	6	6	
63	1	1	3	5	9	9	
	2	3	3	3	9	9	
	3	10	2	3	8	9	
64	1	4	4	5	8	7	
	2	5	3	5	7	5	
	3	10	1	5	7	4	
65	1	2	4	5	10	6	
	2	4	3	3	7	6	
	3	8	3	3	4	4	
66	1	2	4	3	5	2	
	2	4	4	1	5	2	
	3	8	4	1	4	1	
67	1	1	5	3	9	9	
	2	9	4	2	9	9	
	3	10	4	2	9	8	
68	1	7	3	3	10	8	
	2	8	3	3	8	7	
	3	9	2	2	6	7	
69	1	7	3	5	9	5	
	2	8	3	5	6	3	
	3	9	1	5	2	3	
70	1	1	5	4	4	5	
	2	4	4	3	4	3	
	3	8	2	2	3	3	
71	1	5	3	4	1	7	
	2	6	2	4	1	6	
	3	8	1	3	1	6	
72	1	7	4	2	10	10	
	2	8	3	2	8	8	
	3	9	3	1	5	7	
73	1	1	4	3	6	3	
	2	6	3	3	6	3	
	3	10	3	3	6	2	
74	1	2	5	1	7	9	
	2	5	4	1	3	7	
	3	8	4	1	1	5	
75	1	2	5	3	1	6	
	2	6	4	1	1	5	
	3	8	4	1	1	4	
76	1	5	4	3	8	9	
	2	6	3	3	8	6	
	3	10	3	3	7	2	
77	1	6	2	3	8	6	
	2	7	1	3	8	5	
	3	8	1	2	8	5	
78	1	6	4	5	1	6	
	2	7	3	5	1	4	
	3	9	2	5	1	3	
79	1	2	3	3	7	8	
	2	3	3	3	7	5	
	3	4	1	3	7	4	
80	1	1	2	5	6	9	
	2	3	2	3	6	9	
	3	4	2	3	6	8	
81	1	2	5	3	7	4	
	2	3	3	2	6	3	
	3	6	3	2	2	3	
82	1	2	2	3	6	8	
	2	5	2	3	6	5	
	3	10	2	2	6	5	
83	1	4	5	4	7	2	
	2	9	4	2	5	1	
	3	10	4	2	4	1	
84	1	2	2	1	5	7	
	2	9	2	1	5	6	
	3	10	2	1	4	3	
85	1	3	4	4	4	9	
	2	7	3	2	4	7	
	3	8	2	2	3	6	
86	1	7	2	5	7	7	
	2	8	2	4	6	5	
	3	9	2	3	3	3	
87	1	5	5	3	8	2	
	2	6	4	2	6	2	
	3	10	3	2	6	2	
88	1	1	3	4	5	10	
	2	2	2	3	4	9	
	3	9	2	2	4	8	
89	1	1	3	2	8	9	
	2	2	2	2	7	6	
	3	5	2	1	7	2	
90	1	1	4	3	4	6	
	2	3	2	2	2	6	
	3	7	2	1	2	5	
91	1	5	3	5	6	4	
	2	6	3	4	5	4	
	3	9	2	2	4	2	
92	1	3	3	2	4	8	
	2	6	3	2	2	8	
	3	7	3	2	2	7	
93	1	2	4	3	1	7	
	2	9	3	3	1	6	
	3	10	3	1	1	5	
94	1	2	4	5	4	8	
	2	4	4	3	4	7	
	3	10	3	3	4	7	
95	1	3	4	4	3	9	
	2	4	3	2	2	5	
	3	7	3	2	2	4	
96	1	2	4	4	5	10	
	2	4	3	3	4	8	
	3	7	2	2	4	8	
97	1	7	2	3	5	3	
	2	8	1	3	5	3	
	3	9	1	2	3	3	
98	1	3	1	3	8	4	
	2	4	1	1	6	4	
	3	9	1	1	6	3	
99	1	1	4	4	6	1	
	2	2	4	3	5	1	
	3	10	3	3	2	1	
100	1	3	5	3	8	9	
	2	4	4	3	8	6	
	3	5	3	3	8	2	
101	1	3	5	2	4	8	
	2	4	3	1	4	5	
	3	8	1	1	4	4	
102	1	0	0	0	0	0	
************************************************************************

 RESOURCE AVAILABILITIES 
	R 1	R 2	N 1	N 2
	24	24	515	531

************************************************************************
